Set parameter TSPort to value 51199
Set parameter TokenServer to value "open-license1.lanl.gov"
Set parameter TimeLimit to value 128
Set parameter Threads to value 1
Gurobi Optimizer version 10.0.3 build v10.0.3rc0 (linux64)

CPU model: Intel(R) Xeon(R) CPU E5-2695 v4 @ 2.10GHz, instruction set [SSE2|AVX|AVX2]
Thread count: 36 physical cores, 72 logical processors, using up to 1 threads

Optimize a model with 0 rows, 597 columns and 0 nonzeros
Model fingerprint: 0x8cbcd859
Model has 2566 quadratic objective terms
Variable types: 0 continuous, 597 integer (597 binary)
Coefficient statistics:
  Matrix range     [0e+00, 0e+00]
  Objective range  [2e+00, 3e+01]
  QObjective range [8e+00, 8e+00]
  Bounds range     [1e+00, 1e+00]
  RHS range        [0e+00, 0e+00]
Found heuristic solution: objective 0.0000000
Found heuristic solution: objective -1052.000000
Found heuristic solution: objective -3602.000000
Found heuristic solution: objective -3618.000000
Presolve removed 0 rows and 2 columns
Presolve time: 0.25s
Presolved: 2564 rows, 3159 columns, 7692 nonzeros
Variable types: 0 continuous, 3159 integer (3159 binary)

Root relaxation: objective -4.926000e+03, 758 iterations, 0.02 seconds (0.01 work units)

    Nodes    |    Current Node    |     Objective Bounds      |     Work
 Expl Unexpl |  Obj  Depth IntInf | Incumbent    BestBd   Gap | It/Node Time

     0     0 -4926.0000    0  595 -3618.0000 -4926.0000  36.2%     -    0s
     0     0 -4484.8333    0  837 -3618.0000 -4484.8333  24.0%     -    0s
     0     0 -4482.1667    0  845 -3618.0000 -4482.1667  23.9%     -    0s
     0     0 -4380.9167    0  925 -3618.0000 -4380.9167  21.1%     -    0s
     0     0 -4380.9167    0  921 -3618.0000 -4380.9167  21.1%     -    1s
     0     2 -4380.4167    0  915 -3618.0000 -4380.4167  21.1%     -    1s
   513   492 -3873.5000   79  595 -3618.0000 -4368.1667  20.7%  81.5    5s
   533   506 -3917.5000   68 1869 -3618.0000 -4042.3346  11.7%  78.4   10s
   547   515 -3790.5000   93 2172 -3618.0000 -3988.8143  10.2%  76.4   15s
   557   522 -3946.5000   65 2328 -3618.0000 -3955.2292  9.32%  75.1   21s
   566   528 -3946.6860   15 2534 -3618.0000 -3946.6860  9.08%  73.9   25s
   568   529 -3894.5000   75 2612 -3618.0000 -3922.0682  8.40%  73.6   31s
   575   534 -3631.0000  140 2665 -3618.0000 -3907.9580  8.01%  72.7   37s
   580   537 -3904.1286   27 2727 -3618.0000 -3904.1286  7.91%  72.1   40s
   584   540 -3783.5000   99 2728 -3618.0000 -3894.4340  7.64%  71.6   45s
   595   547 -3888.6335   27 2780 -3618.0000 -3888.6335  7.48%  70.3   50s
   603   552 -3879.5445   16 2761 -3618.0000 -3879.5445  7.23%  69.3   56s
   613   559 -3873.5000   79 2799 -3618.0000 -3875.2748  7.11%  68.2   60s
   625   567 -3765.5000  102 2822 -3618.0000 -3869.7318  6.96%  66.9   65s
   636   574 -3865.5227   24 2801 -3618.0000 -3865.5227  6.84%  65.7   70s
   652   585 -3861.0229   29 2844 -3618.0000 -3861.0229  6.72%  64.1   75s
   670   597 -3857.3024   33 2850 -3618.0000 -3857.3024  6.61%  62.4   80s
   685   607 -3633.0000  139 2867 -3618.0000 -3854.3259  6.53%  61.0   85s
   703   619 -3850.7827   16 2878 -3618.0000 -3850.7827  6.43%  59.5   90s
   721   631 -3848.4094   69 2898 -3618.0000 -3848.4094  6.37%  58.0   95s
   737   643 -3761.5000  102 2603 -3618.0000 -3848.2358  6.36%   327  105s
   738   643 -3848.2358   66 2758 -3618.0000 -3848.2358  6.36%   326  111s
   740   645 -3653.0000  133 2871 -3618.0000 -3848.2358  6.36%   325  115s
   755   655 -3845.7513   62 2873 -3618.0000 -3845.7513  6.29%   319  120s
   766   662 -3842.5994   15 2893 -3618.0000 -3842.5994  6.21%   314  125s

Cutting planes:
  Gomory: 27
  MIR: 122
  Flow cover: 1033
  Zero half: 432
  RLT: 102
  BQP: 149

Explored 773 nodes (317972 simplex iterations) in 128.00 seconds (142.79 work units)
Thread count was 1 (of 72 available processors)

Solution count 4: -3618 -3602 -1052 0 

Time limit reached
Best objective -3.618000000000e+03, best bound -3.840000000000e+03, gap 6.1360%

User-callback calls 7175, time in user-callback 0.03 sec

BQP_SOLUTION, 597, 2566, -1258.000000, 128.000520, -1, 1, -1, 1, 1, -1, 1, -1, 1, 1, -1, 1, -1, -1, 1, 1, -1, -1, 1, 1, 1, 1, -1, 1, 1, -1, 1, -1, 1, 1, -1, 1, -1, -1, 1, -1, 1, -1, -1, 1, -1, -1, 1, -1, 1, -1, 1, -1, -1, 1, -1, -1, -1, -1, -1, 1, -1, -1, 1, 1, -1, -1, -1, 1, -1, -1, -1, -1, -1, 1, 1, -1, 1, 1, 1, -1, -1, -1, 1, -1, 1, -1, 1, -1, -1, -1, -1, -1, 1, -1, 1, -1, 1, 1, 1, 1, 1, 1, 1, 1, 1, -1, -1, -1, 1, -1, 1, -1, 1, 1, 1, -1, 1, 1, 1, 1, -1, 1, 1, 1, 1, -1, 1, 1, 1, -1, 1, 1, 1, 1, -1, 1, -1, 1, 1, -1, 1, -1, 1, 1, -1, -1, -1, 1, 1, 1, 1, 1, -1, 1, -1, -1, -1, 1, 1, 1, -1, 1, -1, 1, -1, 1, -1, 1, 1, 1, -1, -1, 1, -1, 1, -1, 1, 1, 1, 1, -1, -1, 1, 1, -1, -1, -1, 1, 1, -1, -1, 1, -1, 1, -1, -1, 1, -1, 1, -1, 1, -1, 1, 1, 1, -1, 1, 1, 1, -1, 1, 1, -1, 1, -1, 1, 1, 1, 1, 1, -1, 1, -1, 1, 1, -1, 1, 1, 1, -1, -1, 1, 1, 1, 1, -1, 1, 1, 1, -1, 1, 1, 1, -1, 1, 1, 1, 1, 1, 1, 1, 1, 1, -1, 1, 1, 1, 1, -1, -1, 1, 1, 1, -1, -1, 1, 1, 1, 1, -1, 1, 1, 1, -1, 1, 1, 1, 1, -1, -1, 1, 1, 1, -1, -1, 1, 1, -1, 1, -1, 1, 1, -1, -1, 1, 1, 1, 1, -1, -1, 1, 1, 1, -1, 1, -1, -1, 1, 1, 1, 1, 1, 1, -1, 1, -1, 1, 1, -1, 1, -1, 1, -1, 1, -1, -1, 1, -1, 1, -1, -1, 1, -1, 1, -1, 1, -1, 1, -1, 1, -1, 1, 1, -1, -1, -1, 1, -1, 1, -1, -1, -1, 1, 1, -1, -1, 1, -1, 1, -1, -1, 1, 1, -1, -1, 1, 1, -1, -1, 1, 1, 1, -1, 1, -1, 1, 1, -1, -1, 1, 1, 1, 1, 1, 1, 1, 1, 1, -1, 1, 1, -1, 1, 1, 1, 1, 1, 1, 1, -1, 1, -1, 1, 1, 1, 1, -1, 1, -1, 1, 1, 1, 1, 1, 1, 1, 1, 1, -1, 1, 1, 1, -1, 1, 1, 1, 1, -1, 1, 1, -1, 1, -1, 1, -1, 1, 1, -1, 1, 1, -1, 1, -1, 1, 1, -1, 1, -1, 1, -1, 1, 1, -1, 1, -1, -1, 1, 1, 1, -1, 1, 1, -1, 1, -1, -1, 1, 1, 1, -1, 1, -1, 1, -1, 1, -1, 1, 1, 1, -1, -1, 1, -1, 1, -1, 1, -1, -1, 1, -1, -1, 1, -1, 1, -1, -1, 1, -1, 1, -1, -1, 1, -1, -1, -1, -1, 1, -1, 1, -1, -1, 1, -1, 1, -1, -1, -1, -1, -1, 1, -1, 1, -1, 1, -1, -1, -1, -1, -1, -1, -1, 1, -1, -1, 1, -1, -1, 1, 1, -1, -1, 1, -1, -1, -1, -1, -1, -1, 1, -1, -1, 1, -1, -1, -1, 1, -1, -1, 1, -1, 1, -1, -1, -1, 1, -1, -1, -1, -1, -1, -1, -1, 1, -1, 1, -1, -1, 1, -1, 1, -1, -1, 1, -1, 1, -1, -1, -1, -1, 1, -1, -1, 1, 1, -1, -1, -1, 1, -1, 1, -1
BQP_DATA, 597, 2566, -1258.000000, -1480.000000, -3618.000000, -3840.000000, 128.000520, 1614, 773
